Route #1: 4 45 29 30 2 62
Route #2: 1 43 56 41 42 64 22
Route #3: 28 61 21 36 47 48
Route #4: 11 59 14 53 7
Route #5: 13 54 19 35 8 46 34
Route #6: 52 27 57 15 20 60 37 5
Route #7: 58 38 10 31 39
Route #8: 9 25 55 18 50 32
Route #9: 26 17 12 40 44 3 51
Route #10: 6 33 63 23 24 49 16
Cost 840